\ENCODING=ISO-8859-1
\Problem name: 

Minimize
 obj: x1 + x2 + x3 + x4 + x5 + x6 + x7 + x8 + x9 + x10 + x11 + x12 + x13 + x14
      + x15 + x16 + x17 + 2 x18 + 2 x19 + 2 x20 + 2 x21 + 2 x22 + 2 x23 + 2 x24
      + 2 x25 + 2 x26 + 2 x27 + 2 x28 + 2 x29 + 2 x30 + 2 x31 + 2 x32 + 2 x33
      + 2 x34 + 2 x35 + 2 x36 + 3 x37 + 3 x38 + 3 x39 + 3 x40 + 3 x41 + 3 x42
      + 3 x43 + 3 x44 + 3 x45 + 3 x46 + 3 x47 + 3 x48 + 3 x49 + 3 x50 + 3 x51
      + 3 x52 + 3 x53 + 3 x54 + 3 x55 + 3 x56 + 3 x57 + 3 x58 + 3 x59 + 3 x60
      + 4 x61 + 4 x62 + 4 x63 + 4 x64 + 4 x65 + 4 x66 + 4 x67 + 4 x68 + 4 x69
      + 4 x70 + 4 x71 + 4 x72 + 4 x73 + 4 x74 + 4 x75 + 4 x76 + 4 x77 + 4 x78
      + 4 x79 + 4 x80 + 4 x81 + 5 x82 + 5 x83 + 5 x84 + 5 x85 + 5 x86 + 5 x87
      + 5 x88 + 5 x89 + 5 x90 + 5 x91 + 5 x92 + 5 x93 + 5 x94 + 5 x95 + 5 x96
      + 5 x97 + 5 x98 + 6 x99 + 6 x100 + 6 x101 + 6 x102 + 6 x103 + 6 x104
      + 6 x105 + 6 x106 + 6 x107 + 6 x108 + 6 x109 + 6 x110 + 6 x111 + 6 x112
      + 6 x113 + 6 x114 + 6 x115 + 7 x116 + 7 x117 + 7 x118 + 7 x119 + 7 x120
      + 8 x121 + 8 x122 + 8 x123 + 8 x124 + 8 x125 + 8 x126 + 8 x127 + 8 x128
      + 8 x129 + 8 x130 + 8 x131 + 8 x132 + 8 x133 + 8 x134 + 8 x135 + 9 x136
      + 9 x137 + 9 x138 + 9 x139 + 9 x140 + 9 x141 + 9 x142 + 9 x143 + 9 x144
      + 9 x145 + 9 x146 + 9 x147 + 9 x148 + 9 x149 + 9 x150 + 9 x151 + 9 x152
      + 9 x153 + 10 x154 + 10 x155 + 10 x156 + 10 x157 + 10 x158 + 10 x159
      + 11 x160 + 11 x161 + 11 x162 + 11 x163 + 11 x164 + 11 x165 + 11 x166
      + 11 x167 + 11 x168 + 11 x169 + 11 x170 + 11 x171 + 12 x172 + 12 x173
      + 12 x174 + 12 x175 + 13 x176 + 13 x177 + 13 x178 + 13 x179 + 13 x180
      + 13 x181 + 13 x182 + 14 x183 + 14 x184 + 14 x185 + 14 x186 + 14 x187
      + 15 x188 + 15 x189 + 15 x190 + 16 x191 + 16 x192 + 17 x193 + 17 x194
      + 18 x195 + 18 x196 + 18 x197 + 20 x198 + 20 x199 + 20 x200 + 21 x201
      + 21 x202 + 23 x203 + 25 x204 + 29 x205 + 29 x206 + 29 x207 + 33 x208
Subject To
 c1:   x42 + x97 + x116 + x143 + x181 + x184 >= 1
 c2:   x15 + x186 >= 1
 c3:   x30 + x109 >= 1
 c4:   x5 + x14 + x37 + x137 + x144 >= 1
 c5:   x88 + x103 + x132 + x138 + x154 >= 1
 c6:   x60 + x81 + x114 + x119 + x135 + x148 >= 1
 c7:   x99 + x127 + x146 + x148 + x168 + x174 + x202 >= 1
 c8:   x18 + x63 + x65 + x86 + x119 + x142 + x143 >= 1
 c9:   x9 + x26 + x61 + x99 + x118 + x175 >= 1
 c10:  x42 + x83 + x94 + x116 >= 1
 c11:  x63 + x68 + x116 + x149 + x196 + x201 >= 1
 c12:  x11 + x28 + x45 + x54 + x118 + x140 >= 1
 c13:  x32 + x42 + x84 + x102 + x118 + x142 + x176 >= 1
 c14:  x61 + x79 + x80 + x81 + x134 >= 1
 c15:  x106 + x150 + x157 >= 1
 c16:  x12 >= 1
 c17:  x44 + x77 + x99 + x169 + x181 >= 1
 c18:  x21 + x104 + x105 + x106 + x126 + x172 + x207 >= 1
 c19:  x26 + x39 + x101 + x154 >= 1
 c20:  x72 + x196 + x205 >= 1
 c21:  x3 + x119 + x145 + x167 + x208 >= 1
 c22:  x22 + x49 + x101 + x184 >= 1
 c23:  x74 + x150 + x154 + x198 >= 1
 c24:  x4 + x77 + x83 >= 1
 c25:  x46 + x175 >= 1
 c26:  x113 + x116 + x135 >= 1
 c27:  x104 + x151 + x188 + x198 + x201 >= 1
 c28:  x127 + x132 + x152 + x192 + x195 + x208 >= 1
 c29:  x63 + x144 + x194 + x205 >= 1
 c30:  x40 + x186 >= 1
 c31:  x7 + x18 + x24 + x101 + x129 >= 1
 c32:  x18 + x82 + x121 + x165 + x197 >= 1
 c33:  x15 + x125 + x183 + x185 >= 1
 c34:  x5 + x22 + x68 + x177 >= 1
 c35:  x189 + x190 + x197 + x200 + x204 + x205 + x206 >= 1
 c36:  x123 + x149 + x165 + x171 + x186 + x191 + x192 + x201 >= 1
 c37:  x64 + x94 + x138 + x155 >= 1
 c38:  x48 + x61 + x66 + x73 + x167 >= 1
 c39:  x69 + x117 + x163 >= 1
 c40:  x8 + x128 >= 1
 c41:  x38 + x65 + x87 + x198 >= 1
 c42:  x68 + x104 + x115 + x158 + x203 + x208 >= 1
 c43:  x43 + x181 + x201 >= 1
 c44:  x50 + x156 + x206 >= 1
 c45:  x1 + x46 + x74 + x125 >= 1
 c46:  x84 + x129 + x167 + x186 >= 1
 c47:  x20 + x57 + x123 + x183 >= 1
 c48:  x98 + x136 + x141 + x176 + x203 >= 1
 c49:  x100 + x134 + x185 + x208 >= 1
 c50:  x43 + x85 + x89 + x96 + x131 + x133 + x206 >= 1
 c51:  x31 + x92 + x199 >= 1
 c52:  x121 + x154 + x177 + x203 >= 1
 c53:  x1 + x73 + x92 + x179 >= 1
 c54:  x104 + x145 + x181 >= 1
 c55:  x4 + x12 + x128 + x140 + x153 >= 1
 c56:  x78 + x124 + x171 + x196 >= 1
 c57:  x23 + x122 + x147 + x154 + x164 >= 1
 c58:  x59 + x143 + x169 >= 1
 c59:  x118 + x156 + x166 + x167 + x173 >= 1
 c60:  x68 + x71 + x92 + x204 >= 1
 c61:  x43 + x100 + x163 + x170 >= 1
 c62:  x9 + x39 + x82 + x195 >= 1
 c63:  x32 + x41 + x49 + x55 + x82 + x92 + x139 + x143 + x160 >= 1
 c64:  x69 + x162 + x185 + x193 + x198 >= 1
 c65:  x8 + x32 + x64 + x82 + x103 + x156 + x173 >= 1
 c66:  x14 + x38 + x49 + x52 + x76 >= 1
 c67:  x2 + x3 + x63 + x187 >= 1
 c68:  x78 + x121 >= 1
 c69:  x37 + x41 + x163 + x170 + x175 + x199 >= 1
 c70:  x13 + x168 + x172 + x173 >= 1
 c71:  x7 >= 1
 c72:  x33 + x63 + x89 + x125 + x182 >= 1
 c73:  x53 >= 1
 c74:  x31 + x39 + x90 + x107 + x122 + x206 >= 1
 c75:  x101 + x122 + x159 + x172 + x194 >= 1
 c76:  x44 + x61 + x127 + x146 + x191 >= 1
 c77:  x21 + x67 + x174 >= 1
 c78:  x22 + x25 + x99 + x158 + x173 + x190 >= 1
 c79:  x50 + x85 + x88 + x117 + x162 >= 1
 c80:  x23 + x85 + x90 + x178 + x189 + x190 >= 1
 c81:  x18 + x20 + x148 + x183 + x184 >= 1
 c82:  x18 + x72 + x195 >= 1
 c83:  x23 + x139 >= 1
 c84:  x19 + x89 + x155 + x160 >= 1
 c85:  x7 + x47 + x99 + x108 + x122 + x138 >= 1
 c86:  x87 + x169 + x191 >= 1
 c87:  x49 + x140 >= 1
 c88:  x51 + x100 + x109 + x110 + x116 + x130 + x138 + x161 + x189 >= 1
 c89:  x12 + x20 + x21 + x33 + x37 + x67 + x84 + x160 >= 1
 c90:  x1 + x4 + x51 + x59 + x208 >= 1
 c91:  x37 + x71 + x111 + x141 + x196 >= 1
 c92:  x62 + x64 + x114 + x146 >= 1
 c93:  x41 + x51 + x195 >= 1
 c94:  x10 + x33 + x62 + x172 >= 1
 c95:  x184 + x187 + x205 + x207 >= 1
 c96:  x43 + x182 + x205 >= 1
 c97:  x29 + x45 >= 1
 c98:  x35 + x37 + x122 + x148 + x183 >= 1
 c99:  x17 + x24 + x38 + x157 + x165 + x166 >= 1
 c100: x3 + x36 + x37 + x44 + x48 + x62 + x138 + x139 + x205 >= 1
 c101: x4 + x27 >= 1
 c102: x85 + x96 + x201 >= 1
 c103: x38 + x48 + x56 + x83 + x164 + x194 >= 1
 c104: x27 + x37 + x52 + x83 + x110 + x126 + x184 + x187 >= 1
 c105: x87 + x125 + x139 + x191 + x207 >= 1
 c106: x75 + x89 + x137 + x141 + x145 + x188 + x193 >= 1
 c107: x28 + x37 + x52 + x57 + x78 + x166 >= 1
 c108: x41 + x51 + x105 + x115 + x122 + x124 >= 1
 c109: x27 + x124 + x127 + x163 >= 1
 c110: x82 + x111 + x121 + x147 >= 1
 c111: x24 + x29 + x95 + x136 >= 1
 c112: x123 + x159 + x160 + x180 >= 1
 c113: x153 + x182 + x204 + x208 >= 1
 c114: x26 + x100 + x102 + x113 + x157 >= 1
 c115: x39 + x62 + x86 + x133 + x161 >= 1
 c116: x45 + x95 + x152 + x195 >= 1
 c117: x87 + x121 + x155 + x188 + x190 + x195 + x202 >= 1
 c118: x9 + x24 + x139 + x187 >= 1
 c119: x34 + x99 + x178 + x195 >= 1
 c120: x45 + x72 + x83 + x165 + x168 + x172 >= 1
 c121: x75 + x93 + x161 + x164 + x173 + x189 + x207 >= 1
 c122: x6 + x80 + x161 >= 1
 c123: x1 + x6 + x25 + x64 + x84 + x141 + x199 >= 1
 c124: x10 + x34 + x62 + x99 + x117 + x118 + x155 + x166 >= 1
 c125: x19 + x23 + x28 + x136 + x161 + x180 >= 1
 c126: x19 + x38 + x94 + x145 + x175 + x188 >= 1
 c127: x19 + x83 + x102 + x116 + x126 + x137 + x178 >= 1
 c128: x44 + x137 + x185 >= 1
 c129: x69 + x99 + x124 + x178 >= 1
 c130: x26 + x37 + x47 + x122 + x169 >= 1
 c131: x55 + x67 + x76 + x96 + x105 + x193 >= 1
 c132: x82 >= 1
 c133: x4 + x45 + x138 + x150 + x155 >= 1
 c134: x179 + x199 >= 1
 c135: x73 + x136 + x158 + x174 >= 1
 c136: x66 + x100 + x145 + x156 + x207 >= 1
 c137: x40 + x47 + x91 + x95 + x156 + x162 + x178 + x192 + x200 >= 1
 c138: x28 + x62 + x79 >= 1
 c139: x11 + x61 + x62 + x130 + x152 >= 1
 c140: x18 + x75 + x102 + x131 + x198 >= 1
 c141: x82 + x89 + x172 + x175 + x183 + x203 >= 1
 c142: x2 + x39 + x67 + x85 + x91 + x120 + x172 >= 1
 c143: x10 + x19 + x22 + x46 + x56 + x112 + x203 >= 1
 c144: x88 + x101 + x102 + x120 >= 1
 c145: x84 + x121 + x191 + x193 >= 1
 c146: x20 + x60 + x144 + x185 >= 1
 c147: x41 + x61 + x158 + x205 >= 1
 c148: x8 + x48 + x123 + x154 >= 1
 c149: x29 + x65 + x116 + x124 + x142 + x203 >= 1
 c150: x13 + x129 + x144 + x163 + x191 >= 1
 c151: x29 + x117 + x137 >= 1
 c152: x35 + x112 + x165 + x177 + x206 >= 1
 c153: x21 + x55 + x90 + x197 + x204 >= 1
 c154: x20 + x91 + x126 + x138 + x167 + x193 + x194 + x198 >= 1
 c155: x27 + x39 + x117 + x128 + x161 + x183 >= 1
 c156: x2 + x50 + x53 + x100 + x179 + x182 >= 1
 c157: x16 + x132 + x192 >= 1
 c158: x9 + x30 + x147 >= 1
 c159: x1 + x82 + x196 >= 1
 c160: x71 + x110 + x164 + x174 + x176 >= 1
 c161: x47 + x69 + x157 + x160 + x164 >= 1
 c162: x42 + x72 + x86 + x120 + x121 + x122 + x127 + x140 + x176 + x177 + x180
       + x188 >= 1
 c163: x20 + x24 + x50 + x84 + x136 + x142 + x177 + x180 >= 1
 c164: x2 + x199 >= 1
 c165: x25 + x36 + x40 + x65 + x70 + x119 + x123 + x144 + x162 >= 1
 c166: x21 + x64 + x66 + x113 + x151 + x165 >= 1
 c167: x44 + x70 + x103 + x111 + x162 >= 1
 c168: x18 + x54 + x58 + x106 + x136 >= 1
 c169: x82 + x88 + x126 >= 1
 c170: x11 + x91 + x136 + x154 + x174 >= 1
 c171: x166 + x202 >= 1
 c172: x2 + x46 + x107 + x176 + x191 >= 1
 c173: x3 + x61 + x86 + x90 + x197 >= 1
 c174: x38 + x70 + x140 + x141 + x160 + x183 + x208 >= 1
 c175: x23 + x25 + x46 + x67 + x76 + x136 + x186 >= 1
 c176: x19 + x30 + x151 + x199 >= 1
 c177: x42 + x124 + x208 >= 1
 c178: x22 + x88 + x93 + x137 + x168 + x178 >= 1
 c179: x65 + x107 + x108 + x112 + x191 >= 1
 c180: x37 + x61 + x103 + x160 + x188 + x194 >= 1
 c181: x70 + x131 + x161 >= 1
 c182: x97 + x123 + x128 + x200 + x206 >= 1
 c183: x5 + x41 + x68 + x71 + x83 + x121 + x163 + x171 >= 1
 c184: x74 >= 1
 c185: x6 + x16 + x160 + x164 >= 1
 c186: x7 + x86 + x98 + x136 >= 1
 c187: x84 + x87 + x188 >= 1
 c188: x37 + x40 + x66 + x73 + x176 + x197 >= 1
 c189: x58 + x93 + x179 + x196 >= 1
 c190: x83 + x130 + x142 >= 1
 c191: x5 + x8 + x52 >= 1
 c192: x6 + x18 + x37 + x66 + x77 + x138 + x139 + x146 >= 1
 c193: x31 + x37 + x40 + x176 >= 1
 c194: x53 + x133 + x147 + x177 + x206 >= 1
 c195: x54 + x56 + x63 + x108 + x109 + x179 >= 1
 c196: x64 + x137 + x173 >= 1
 c197: x116 + x149 + x170 + x207 >= 1
 c198: x3 + x100 + x160 + x162 + x205 >= 1
 c199: x43 + x125 + x129 + x137 + x143 + x188 >= 1
 c200: x21 + x40 + x99 + x121 >= 1
Bounds
 0 <= x1 <= 1
 0 <= x2 <= 1
 0 <= x3 <= 1
 0 <= x4 <= 1
 0 <= x5 <= 1
 0 <= x6 <= 1
 0 <= x7 <= 1
 0 <= x8 <= 1
 0 <= x9 <= 1
 0 <= x10 <= 1
 0 <= x11 <= 1
 0 <= x12 <= 1
 0 <= x13 <= 1
 0 <= x14 <= 1
 0 <= x15 <= 1
 0 <= x16 <= 1
 0 <= x17 <= 1
 0 <= x18 <= 1
 0 <= x19 <= 1
 0 <= x20 <= 1
 0 <= x21 <= 1
 0 <= x22 <= 1
 0 <= x23 <= 1
 0 <= x24 <= 1
 0 <= x25 <= 1
 0 <= x26 <= 1
 0 <= x27 <= 1
 0 <= x28 <= 1
 0 <= x29 <= 1
 0 <= x30 <= 1
 0 <= x31 <= 1
 0 <= x32 <= 1
 0 <= x33 <= 1
 0 <= x34 <= 1
 0 <= x35 <= 1
 0 <= x36 <= 1
 0 <= x37 <= 1
 0 <= x38 <= 1
 0 <= x39 <= 1
 0 <= x40 <= 1
 0 <= x41 <= 1
 0 <= x42 <= 1
 0 <= x43 <= 1
 0 <= x44 <= 1
 0 <= x45 <= 1
 0 <= x46 <= 1
 0 <= x47 <= 1
 0 <= x48 <= 1
 0 <= x49 <= 1
 0 <= x50 <= 1
 0 <= x51 <= 1
 0 <= x52 <= 1
 0 <= x53 <= 1
 0 <= x54 <= 1
 0 <= x55 <= 1
 0 <= x56 <= 1
 0 <= x57 <= 1
 0 <= x58 <= 1
 0 <= x59 <= 1
 0 <= x60 <= 1
 0 <= x61 <= 1
 0 <= x62 <= 1
 0 <= x63 <= 1
 0 <= x64 <= 1
 0 <= x65 <= 1
 0 <= x66 <= 1
 0 <= x67 <= 1
 0 <= x68 <= 1
 0 <= x69 <= 1
 0 <= x70 <= 1
 0 <= x71 <= 1
 0 <= x72 <= 1
 0 <= x73 <= 1
 0 <= x74 <= 1
 0 <= x75 <= 1
 0 <= x76 <= 1
 0 <= x77 <= 1
 0 <= x78 <= 1
 0 <= x79 <= 1
 0 <= x80 <= 1
 0 <= x81 <= 1
 0 <= x82 <= 1
 0 <= x83 <= 1
 0 <= x84 <= 1
 0 <= x85 <= 1
 0 <= x86 <= 1
 0 <= x87 <= 1
 0 <= x88 <= 1
 0 <= x89 <= 1
 0 <= x90 <= 1
 0 <= x91 <= 1
 0 <= x92 <= 1
 0 <= x93 <= 1
 0 <= x94 <= 1
 0 <= x95 <= 1
 0 <= x96 <= 1
 0 <= x97 <= 1
 0 <= x98 <= 1
 0 <= x99 <= 1
 0 <= x100 <= 1
 0 <= x101 <= 1
 0 <= x102 <= 1
 0 <= x103 <= 1
 0 <= x104 <= 1
 0 <= x105 <= 1
 0 <= x106 <= 1
 0 <= x107 <= 1
 0 <= x108 <= 1
 0 <= x109 <= 1
 0 <= x110 <= 1
 0 <= x111 <= 1
 0 <= x112 <= 1
 0 <= x113 <= 1
 0 <= x114 <= 1
 0 <= x115 <= 1
 0 <= x116 <= 1
 0 <= x117 <= 1
 0 <= x118 <= 1
 0 <= x119 <= 1
 0 <= x120 <= 1
 0 <= x121 <= 1
 0 <= x122 <= 1
 0 <= x123 <= 1
 0 <= x124 <= 1
 0 <= x125 <= 1
 0 <= x126 <= 1
 0 <= x127 <= 1
 0 <= x128 <= 1
 0 <= x129 <= 1
 0 <= x130 <= 1
 0 <= x131 <= 1
 0 <= x132 <= 1
 0 <= x133 <= 1
 0 <= x134 <= 1
 0 <= x135 <= 1
 0 <= x136 <= 1
 0 <= x137 <= 1
 0 <= x138 <= 1
 0 <= x139 <= 1
 0 <= x140 <= 1
 0 <= x141 <= 1
 0 <= x142 <= 1
 0 <= x143 <= 1
 0 <= x144 <= 1
 0 <= x145 <= 1
 0 <= x146 <= 1
 0 <= x147 <= 1
 0 <= x148 <= 1
 0 <= x149 <= 1
 0 <= x150 <= 1
 0 <= x151 <= 1
 0 <= x152 <= 1
 0 <= x153 <= 1
 0 <= x154 <= 1
 0 <= x155 <= 1
 0 <= x156 <= 1
 0 <= x157 <= 1
 0 <= x158 <= 1
 0 <= x159 <= 1
 0 <= x160 <= 1
 0 <= x161 <= 1
 0 <= x162 <= 1
 0 <= x163 <= 1
 0 <= x164 <= 1
 0 <= x165 <= 1
 0 <= x166 <= 1
 0 <= x167 <= 1
 0 <= x168 <= 1
 0 <= x169 <= 1
 0 <= x170 <= 1
 0 <= x171 <= 1
 0 <= x172 <= 1
 0 <= x173 <= 1
 0 <= x174 <= 1
 0 <= x175 <= 1
 0 <= x176 <= 1
 0 <= x177 <= 1
 0 <= x178 <= 1
 0 <= x179 <= 1
 0 <= x180 <= 1
 0 <= x181 <= 1
 0 <= x182 <= 1
 0 <= x183 <= 1
 0 <= x184 <= 1
 0 <= x185 <= 1
 0 <= x186 <= 1
 0 <= x187 <= 1
 0 <= x188 <= 1
 0 <= x189 <= 1
 0 <= x190 <= 1
 0 <= x191 <= 1
 0 <= x192 <= 1
 0 <= x193 <= 1
 0 <= x194 <= 1
 0 <= x195 <= 1
 0 <= x196 <= 1
 0 <= x197 <= 1
 0 <= x198 <= 1
 0 <= x199 <= 1
 0 <= x200 <= 1
 0 <= x201 <= 1
 0 <= x202 <= 1
 0 <= x203 <= 1
 0 <= x204 <= 1
 0 <= x205 <= 1
 0 <= x206 <= 1
 0 <= x207 <= 1
 0 <= x208 <= 1
Binaries
 x1  x2  x3  x4  x5  x6  x7  x8  x9  x10  x11  x12  x13  x14  x15  x16  x17 
 x18  x19  x20  x21  x22  x23  x24  x25  x26  x27  x28  x29  x30  x31  x32 
 x33  x34  x35  x36  x37  x38  x39  x40  x41  x42  x43  x44  x45  x46  x47 
 x48  x49  x50  x51  x52  x53  x54  x55  x56  x57  x58  x59  x60  x61  x62 
 x63  x64  x65  x66  x67  x68  x69  x70  x71  x72  x73  x74  x75  x76  x77 
 x78  x79  x80  x81  x82  x83  x84  x85  x86  x87  x88  x89  x90  x91  x92 
 x93  x94  x95  x96  x97  x98  x99  x100  x101  x102  x103  x104  x105  x106 
 x107  x108  x109  x110  x111  x112  x113  x114  x115  x116  x117  x118  x119 
 x120  x121  x122  x123  x124  x125  x126  x127  x128  x129  x130  x131  x132 
 x133  x134  x135  x136  x137  x138  x139  x140  x141  x142  x143  x144  x145 
 x146  x147  x148  x149  x150  x151  x152  x153  x154  x155  x156  x157  x158 
 x159  x160  x161  x162  x163  x164  x165  x166  x167  x168  x169  x170  x171 
 x172  x173  x174  x175  x176  x177  x178  x179  x180  x181  x182  x183  x184 
 x185  x186  x187  x188  x189  x190  x191  x192  x193  x194  x195  x196  x197 
 x198  x199  x200  x201  x202  x203  x204  x205  x206  x207  x208 
End
